job_count = 18 ;
duration = [|7, 3, 9|11, 10, 9|5, 19, 3|18, 3, 8|19, 17, 5|26, 14, 9|5, 16, 3|10, 8, 2|18, 18, 5|14, 2, 7|8, 18, 8|7, 7, 1|26, 10, 7|10, 6, 6|5, 10, 3|9, 11, 9|22, 13, 7|23, 9, 7|] ;
machine_count = 3 ;
cost = [|17, 36, 55|15, 22, 32|18, 38, 36|19, 21, 34|11, 25, 38|17, 28, 30|17, 20, 37|19, 20, 36|14, 29, 58|16, 20, 49|12, 34, 46|10, 32, 30|15, 36, 31|17, 28, 47|12, 37, 49|14, 31, 43|17, 35, 56|12, 20, 39|] ;
deadline = [40, 40, 40, 40, 40, 40, 40, 40, 40, 40, 40, 40, 40, 40, 40, 40, 40, 40] ;
release = [0, 0, 0, 0, 0, 0, 0, 0, 0, 0, 0, 0, 0, 0, 0, 0, 0, 0] ;
resource = [|2, 2, 2|6, 6, 6|4, 4, 4|5, 5, 5|5, 5, 5|1, 1, 1|7, 7, 7|7, 7, 7|1, 1, 1|3, 3, 3|6, 6, 6|5, 5, 5|4, 4, 4|9, 9, 9|9, 9, 9|6, 6, 6|7, 7, 7|2, 2, 2|] ;
capacities = [10, 10, 10] ;
